Maximize
F - f1 - f2

Subject to
F - 6y56 - 6y162 - 4y118 - 4y36 - 8y41 - 6y43 - 2y157 - 4y151 - 2y185 - 4y28 - 4y87 - 6y182 - 8y32 - 4y8 - 6y15 - 8y44 - 4y176 = 0
f1 - 0.007527s56 - 0.007527s162 - 0.007527s118 - 0.007527s36 - 0.007527s41 - 0.007527s43 - 0.007527s157 - 0.007527s151 - 0.007527s185 - 0.007527s28 - 0.007527s87 - 0.007527s182 - 0.007527s32 - 0.007527s8 - 0.007527s15 - 0.007527s44 - 0.007527s176  = 0
f2 - 2.79y56 - 2.90y162 - 2.65y118 - 2.77y36 - 2.45y41 - 2.54y43 - 2.66y157 - 2.76y151 - 2.79y185 - 1.18y28 - 0.92y87 - 1.01y182 - 0.91y32 - 0.05y8 - 0.17y15 - 0.10y44 - 0.01y176 = 0

x191x56x1 + x191x162x1 + x191x36x1 + x191x41x1 + x191x43x1 + x191x185x1 + x191x32x1 
<= 2
x88x56x1 + x88x162x1 + x88x36x1 + x88x41x1 + x88x43x1 + x88x185x1 + x88x32x1 
<= 2
x26x32x1 
<= 1
x24x32x1 
<= 1
x38x32x1 
<= 2
x142x162x2 + x142x118x2 + x142x41x2 + x142x43x2 + x142x87x2 + x142x8x2 + x142x15x2 + x142x44x2 + x142x176x2 
<= 2
x23x162x2 + x23x118x2 + x23x41x2 + x23x43x2 + x23x87x2 + x23x8x2 + x23x15x2 + x23x44x2 + x23x176x2 
<= 2
x138x162x2 + x138x118x2 + x138x41x2 + x138x43x2 + x138x87x2 + x138x8x2 + x138x15x2 + x138x44x2 + x138x176x2 
<= 1
x26x87x2 + x26x8x2 + x26x15x2 + x26x44x2 + x26x176x2 
<= 1
x24x87x2 + x24x8x2 + x24x15x2 + x24x44x2 + x24x176x2 
<= 1
x196x162x2 + x196x118x2 + x196x41x2 + x196x43x2 + x196x87x2 + x196x8x2 + x196x15x2 + x196x44x2 + x196x176x2 
<= 1
x90x157x3 + x90x151x3 + x90x185x3 + x90x28x3 + x90x182x3 + x90x32x3 + x90x15x3 
<= 2
x138x157x3 + x138x151x3 + x138x185x3 + x138x28x3 + x138x182x3 + x138x32x3 + x138x15x3 
<= 1
x121x157x3 + x121x151x3 + x121x185x3 + x121x28x3 + x121x182x3 + x121x32x3 + x121x15x3 
<= 2
x196x157x3 + x196x151x3 + x196x185x3 + x196x28x3 + x196x182x3 + x196x32x3 + x196x15x3 
<= 1
x75x157x3 + x75x151x3 + x75x185x3 + x75x28x3 + x75x182x3 + x75x32x3 + x75x15x3 
<= 2

x191x56x1 + x88x56x1 
- x56x0x1
- x56x162x1 - x56x36x1 - x56x41x1 - x56x43x1 - x56x185x1 - x56x32x1 
= 0



x191x162x1 + x88x162x1 + x56x162x1 
- x162x0x1
- x162x36x1 - x162x185x1 - x162x32x1 
= 0
x142x162x2 + x23x162x2 + x138x162x2 + x196x162x2 
- x162x0x2
- x162x87x2 - x162x8x2 - x162x15x2 - x162x44x2 - x162x176x2 
= 0



x142x118x2 + x23x118x2 + x138x118x2 + x196x118x2 
- x118x0x2
- x118x43x2 - x118x87x2 - x118x8x2 - x118x15x2 - x118x44x2 - x118x176x2 
= 0


x191x36x1 + x88x36x1 + x56x36x1 + x162x36x1 
- x36x0x1
- x36x185x1 - x36x32x1 
= 0



x191x41x1 + x88x41x1 + x56x41x1 
- x41x0x1
- x41x185x1 - x41x32x1 
= 0
x142x41x2 + x23x41x2 + x138x41x2 + x196x41x2 
- x41x0x2
- x41x87x2 - x41x8x2 - x41x15x2 - x41x44x2 - x41x176x2 
= 0


x191x43x1 + x88x43x1 + x56x43x1 
- x43x0x1
- x43x185x1 - x43x32x1 
= 0
x142x43x2 + x23x43x2 + x138x43x2 + x196x43x2 + x118x43x2 
- x43x0x2
- x43x87x2 - x43x8x2 - x43x15x2 - x43x44x2 - x43x176x2 
= 0




x90x157x3 + x138x157x3 + x121x157x3 + x196x157x3 + x75x157x3 
- x157x0x3
- x157x185x3 - x157x28x3 - x157x182x3 - x157x32x3 - x157x15x3 
= 0



x90x151x3 + x138x151x3 + x121x151x3 + x196x151x3 + x75x151x3 
- x151x0x3
- x151x185x3 - x151x28x3 - x151x182x3 - x151x32x3 - x151x15x3 
= 0

x191x185x1 + x88x185x1 + x56x185x1 + x162x185x1 + x36x185x1 + x41x185x1 + x43x185x1 
- x185x0x1
- x185x32x1 
= 0

x90x185x3 + x138x185x3 + x121x185x3 + x196x185x3 + x75x185x3 + x157x185x3 + x151x185x3 
- x185x0x3
- x185x28x3 - x185x182x3 - x185x32x3 - x185x15x3 
= 0



x90x28x3 + x138x28x3 + x121x28x3 + x196x28x3 + x75x28x3 + x157x28x3 + x151x28x3 + x185x28x3 
- x28x0x3
- x28x182x3 - x28x32x3 - x28x15x3 
= 0


x142x87x2 + x23x87x2 + x138x87x2 + x26x87x2 + x24x87x2 + x196x87x2 + x162x87x2 + x118x87x2 + x41x87x2 + x43x87x2 
- x87x0x2
- x87x8x2 - x87x15x2 - x87x44x2 - x87x176x2 
= 0




x90x182x3 + x138x182x3 + x121x182x3 + x196x182x3 + x75x182x3 + x157x182x3 + x151x182x3 + x185x182x3 + x28x182x3 
- x182x0x3
- x182x15x3 
= 0

x191x32x1 + x88x32x1 + x26x32x1 + x24x32x1 + x38x32x1 + x56x32x1 + x162x32x1 + x36x32x1 + x41x32x1 + x43x32x1 + x185x32x1 
- x32x0x1

= 0

x90x32x3 + x138x32x3 + x121x32x3 + x196x32x3 + x75x32x3 + x157x32x3 + x151x32x3 + x185x32x3 + x28x32x3 
- x32x0x3
- x32x15x3 
= 0


x142x8x2 + x23x8x2 + x138x8x2 + x26x8x2 + x24x8x2 + x196x8x2 + x162x8x2 + x118x8x2 + x41x8x2 + x43x8x2 + x87x8x2 
- x8x0x2

= 0



x142x15x2 + x23x15x2 + x138x15x2 + x26x15x2 + x24x15x2 + x196x15x2 + x162x15x2 + x118x15x2 + x41x15x2 + x43x15x2 + x87x15x2 
- x15x0x2

= 0
x90x15x3 + x138x15x3 + x121x15x3 + x196x15x3 + x75x15x3 + x157x15x3 + x151x15x3 + x185x15x3 + x28x15x3 + x182x15x3 + x32x15x3 
- x15x0x3

= 0


x142x44x2 + x23x44x2 + x138x44x2 + x26x44x2 + x24x44x2 + x196x44x2 + x162x44x2 + x118x44x2 + x41x44x2 + x43x44x2 + x87x44x2 
- x44x0x2

= 0



x142x176x2 + x23x176x2 + x138x176x2 + x26x176x2 + x24x176x2 + x196x176x2 + x162x176x2 + x118x176x2 + x41x176x2 + x43x176x2 + x87x176x2 
- x176x0x2

= 0


2y56 - x191x56x1 - x88x56x1 = 0
1y162 - x191x162x1 - x88x162x1 - x56x162x1 = 0
1y162 - x142x162x2 - x23x162x2 - x138x162x2 - x196x162x2 = 0
2y118 - x142x118x2 - x23x118x2 - x138x118x2 - x196x118x2 = 0
2y36 - x191x36x1 - x88x36x1 - x56x36x1 - x162x36x1 = 0
1y41 - x191x41x1 - x88x41x1 - x56x41x1 = 0
1y41 - x142x41x2 - x23x41x2 - x138x41x2 - x196x41x2 = 0
1y43 - x191x43x1 - x88x43x1 - x56x43x1 = 0
1y43 - x142x43x2 - x23x43x2 - x138x43x2 - x196x43x2 - x118x43x2 = 0
2y157 - x90x157x3 - x138x157x3 - x121x157x3 - x196x157x3 - x75x157x3 = 0
2y151 - x90x151x3 - x138x151x3 - x121x151x3 - x196x151x3 - x75x151x3 = 0
1y185 - x191x185x1 - x88x185x1 - x56x185x1 - x162x185x1 - x36x185x1 - x41x185x1 - x43x185x1 = 0
1y185 - x90x185x3 - x138x185x3 - x121x185x3 - x196x185x3 - x75x185x3 - x157x185x3 - x151x185x3 = 0
2y28 - x90x28x3 - x138x28x3 - x121x28x3 - x196x28x3 - x75x28x3 - x157x28x3 - x151x28x3 - x185x28x3 = 0
2y87 - x142x87x2 - x23x87x2 - x138x87x2 - x26x87x2 - x24x87x2 - x196x87x2 - x162x87x2 - x118x87x2 - x41x87x2 - x43x87x2 = 0
2y182 - x90x182x3 - x138x182x3 - x121x182x3 - x196x182x3 - x75x182x3 - x157x182x3 - x151x182x3 - x185x182x3 - x28x182x3 = 0
1y32 - x191x32x1 - x88x32x1 - x26x32x1 - x24x32x1 - x38x32x1 - x56x32x1 - x162x32x1 - x36x32x1 - x41x32x1 - x43x32x1 - x185x32x1 = 0
1y32 - x90x32x3 - x138x32x3 - x121x32x3 - x196x32x3 - x75x32x3 - x157x32x3 - x151x32x3 - x185x32x3 - x28x32x3 = 0
2y8 - x142x8x2 - x23x8x2 - x138x8x2 - x26x8x2 - x24x8x2 - x196x8x2 - x162x8x2 - x118x8x2 - x41x8x2 - x43x8x2 - x87x8x2 = 0
1y15 - x142x15x2 - x23x15x2 - x138x15x2 - x26x15x2 - x24x15x2 - x196x15x2 - x162x15x2 - x118x15x2 - x41x15x2 - x43x15x2 - x87x15x2 = 0
1y15 - x90x15x3 - x138x15x3 - x121x15x3 - x196x15x3 - x75x15x3 - x157x15x3 - x151x15x3 - x185x15x3 - x28x15x3 - x182x15x3 - x32x15x3 = 0
2y44 - x142x44x2 - x23x44x2 - x138x44x2 - x26x44x2 - x24x44x2 - x196x44x2 - x162x44x2 - x118x44x2 - x41x44x2 - x43x44x2 - x87x44x2 = 0
2y176 - x142x176x2 - x23x176x2 - x138x176x2 - x26x176x2 - x24x176x2 - x196x176x2 - x162x176x2 - x118x176x2 - x41x176x2 - x43x176x2 - x87x176x2 = 0

s191 - s56 + 6.457087z191z56z1 <= 4.98
s191 - s162 + 6.472878z191z162z1 <= 4.98
s191 - s36 + 6.490789z191z36z1 <= 4.98
s191 - s41 + 6.500196z191z41z1 <= 4.98
s191 - s43 + 6.503252z191z43z1 <= 4.98
s191 - s185 + 6.510188z191z185z1 <= 4.98
s191 - s32 + 6.798540z191z32z1 <= 4.98
s90 - s157 + 6.891246z90z157z3 <= 5.19
s90 - s151 + 6.908967z90z151z3 <= 5.19
s90 - s185 + 6.929985z90z185z3 <= 5.19
s90 - s28 + 6.981411z90z28z3 <= 5.19
s90 - s182 + 6.986547z90z182z3 <= 5.19
s90 - s32 + 6.965572z90z32z3 <= 5.19
s90 - s15 + 7.206758z90z15z3 <= 5.19
s88 - s56 + 6.709338z88z56z1 <= 5.14
s88 - s162 + 6.756164z88z162z1 <= 5.14
s88 - s36 + 6.755075z88z36z1 <= 5.14
s88 - s41 + 6.698115z88z41z1 <= 5.14
s88 - s43 + 6.723185z88z43z1 <= 5.14
s88 - s185 + 6.784449z88z185z1 <= 5.14
s88 - s32 + 6.845747z88z32z1 <= 5.14
s142 - s162 + 6.692910z142z162z2 <= 5.25
s142 - s118 + 6.715685z142z118z2 <= 5.25
s142 - s41 + 6.727859z142z41z2 <= 5.25
s142 - s43 + 6.728235z142z43z2 <= 5.25
s142 - s87 + 7.015531z142z87z2 <= 5.25
s142 - s8 + 7.295013z142z8z2 <= 5.25
s142 - s15 + 7.289553z142z15z2 <= 5.25
s142 - s44 + 7.042952z142z44z2 <= 5.25
s142 - s176 + 7.070567z142z176z2 <= 5.25
s23 - s162 + 7.047373z23z162z2 <= 5.46
s23 - s118 + 7.023607z23z118z2 <= 5.46
s23 - s41 + 6.990883z23z41z2 <= 5.46
s23 - s43 + 7.015687z23z43z2 <= 5.46
s23 - s87 + 7.128211z23z87z2 <= 5.46
s23 - s8 + 7.392479z23z8z2 <= 5.46
s23 - s15 + 7.402585z23z15z2 <= 5.46
s23 - s44 + 6.992301z23z44z2 <= 5.46
s23 - s176 + 7.028034z23z176z2 <= 5.46
s138 - s162 + 7.013015z138z162z2 <= 5.58
s138 - s118 + 6.991772z138z118z2 <= 5.58
s138 - s41 + 6.961753z138z41z2 <= 5.58
s138 - s43 + 6.985417z138z43z2 <= 5.58
s138 - s157 + 7.006665z138z157z3 <= 5.58
s138 - s151 + 7.022419z138z151z3 <= 5.58
s138 - s185 + 7.043456z138z185z3 <= 5.58
s138 - s28 + 7.157691z138z28z3 <= 5.58
s138 - s87 + 7.137702z138z87z2 <= 5.58
s138 - s182 + 7.171143z138z182z3 <= 5.58
s138 - s32 + 7.156142z138z32z3 <= 5.58
s138 - s8 + 7.417724z138z8z2 <= 5.58
s138 - s15 + 7.424114z138z15z2 <= 5.58
s138 - s15 + 7.424114z138z15z3 <= 5.58
s138 - s44 + 7.044468z138z44z2 <= 5.58
s138 - s176 + 7.079759z138z176z2 <= 5.58
s26 - s87 + 7.471305z26z87z2 <= 5.96
s26 - s32 + 7.489985z26z32z1 <= 5.96
s26 - s8 + 7.746770z26z8z2 <= 5.96
s26 - s15 + 7.754294z26z15z2 <= 5.96
s26 - s44 + 7.366225z26z44z2 <= 5.96
s26 - s176 + 7.401768z26z176z2 <= 5.96
s24 - s87 + 7.406166z24z87z2 <= 5.91
s24 - s32 + 7.424860z24z32z1 <= 5.91
s24 - s8 + 7.681389z24z8z2 <= 5.91
s24 - s15 + 7.688943z24z15z2 <= 5.91
s24 - s44 + 7.301240z24z44z2 <= 5.91
s24 - s176 + 7.336741z24z176z2 <= 5.91
s121 - s157 + 7.031250z121z157z3 <= 5.58
s121 - s151 + 7.049054z121z151z3 <= 5.58
s121 - s185 + 7.070054z121z185z3 <= 5.58
s121 - s28 + 7.144332z121z28z3 <= 5.58
s121 - s182 + 7.154227z121z182z3 <= 5.58
s121 - s32 + 7.136514z121z32z3 <= 5.58
s121 - s15 + 7.396920z121z15z3 <= 5.58
s38 - s32 + 7.423382z38z32z1 <= 5.97
s196 - s162 + 6.400120z196z162z2 <= 4.87
s196 - s118 + 6.417427z196z118z2 <= 4.87
s196 - s41 + 6.423249z196z41z2 <= 4.87
s196 - s43 + 6.427736z196z43z2 <= 4.87
s196 - s157 + 6.426977z196z157z3 <= 4.87
s196 - s151 + 6.425697z196z151z3 <= 4.87
s196 - s185 + 6.437897z196z185z3 <= 4.87
s196 - s28 + 6.696835z196z28z3 <= 4.87
s196 - s87 + 6.705399z196z87z2 <= 4.87
s196 - s182 + 6.721851z196z182z3 <= 4.87
s196 - s32 + 6.719550z196z32z3 <= 4.87
s196 - s8 + 6.990541z196z8z2 <= 4.87
s196 - s15 + 6.987103z196z15z2 <= 4.87
s196 - s15 + 6.987103z196z15z3 <= 4.87
s196 - s44 + 6.707526z196z44z2 <= 4.87
s196 - s176 + 6.737760z196z176z2 <= 4.87
s75 - s157 + 6.450256z75z157z3 <= 4.88
s75 - s151 + 6.448369z75z151z3 <= 4.88
s75 - s185 + 6.460062z75z185z3 <= 4.88
s75 - s28 + 6.721888z75z28z3 <= 4.88
s75 - s182 + 6.747181z75z182z3 <= 4.88
s75 - s32 + 6.745325z75z32z3 <= 4.88
s75 - s15 + 7.011969z75z15z3 <= 4.88
s56 - s162 + 8.057140z56z162z1 <= 7.01
s56 - s36 + 8.058074z56z36z1 <= 7.01
s56 - s41 + 8.063748z56z41z1 <= 7.01
s56 - s43 + 8.056667z56z43z1 <= 7.01
s56 - s185 + 8.087747z56z185z1 <= 7.01
s56 - s32 + 8.359794z56z32z1 <= 7.01
s162 - s36 + 8.121081z162z36z1 <= 7.10
s162 - s185 + 8.138873z162z185z1 <= 7.10
s162 - s87 + 8.443641z162z87z2 <= 7.10
s162 - s32 + 8.452578z162z32z1 <= 7.10
s162 - s8 + 8.707582z162z8z2 <= 7.10
s162 - s15 + 8.700037z162z15z2 <= 7.10
s162 - s44 + 8.547859z162z44z2 <= 7.10
s162 - s176 + 8.562841z162z176z2 <= 7.10
s118 - s43 + 8.148856z118z43z2 <= 7.13
s118 - s87 + 8.438833z118z87z2 <= 7.13
s118 - s8 + 8.710000z118z8z2 <= 7.13
s118 - s15 + 8.703953z118z15z2 <= 7.13
s118 - s44 + 8.535408z118z44z2 <= 7.13
s118 - s176 + 8.550846z118z176z2 <= 7.13
s36 - s185 + 8.179814z36z185z1 <= 7.15
s36 - s32 + 8.481528z36z32z1 <= 7.15
s41 - s185 + 8.243571z41z185z1 <= 7.15
s41 - s87 + 8.438599z41z87z2 <= 7.15
s41 - s32 + 8.450666z41z32z1 <= 7.15
s41 - s8 + 8.718077z41z8z2 <= 7.15
s41 - s15 + 8.713955z41z15z2 <= 7.15
s41 - s44 + 8.518179z41z44z2 <= 7.15
s41 - s176 + 8.535343z41z176z2 <= 7.15
s43 - s185 + 8.226999z43z185z1 <= 7.16
s43 - s87 + 8.452878z43z87z2 <= 7.16
s43 - s32 + 8.463608z43z32z1 <= 7.16
s43 - s8 + 8.726824z43z8z2 <= 7.16
s43 - s15 + 8.721427z43z15z2 <= 7.16
s43 - s44 + 8.546552z43z44z2 <= 7.16
s43 - s176 + 8.562050z43z176z2 <= 7.16
s157 - s185 + 8.210000z157z185z3 <= 7.17
s157 - s28 + 8.451977z157z28z3 <= 7.17
s157 - s182 + 8.480197z157z182z3 <= 7.17
s157 - s32 + 8.485313z157z32z3 <= 7.17
s157 - s15 + 8.736824z157z15z3 <= 7.17
s151 - s185 + 8.211082z151z185z3 <= 7.19
s151 - s28 + 8.481586z151z28z3 <= 7.19
s151 - s182 + 8.510347z151z182z3 <= 7.19
s151 - s32 + 8.516939z151z32z3 <= 7.19
s151 - s15 + 8.763372z151z15z3 <= 7.19
s185 - s28 + 8.549444z185z28z3 <= 7.26
s185 - s182 + 8.578678z185z182z3 <= 7.26
s185 - s32 + 8.586939z185z32z1 <= 7.26
s185 - s32 + 8.586939z185z32z3 <= 7.26
s185 - s15 + 8.827294z185z15z3 <= 7.26
s28 - s182 + 9.079815z28z182z3 <= 8.05
s28 - s32 + 9.098074z28z32z3 <= 8.05
s28 - s15 + 9.340441z28z15z3 <= 8.05
s87 - s8 + 9.399444z87z8z2 <= 8.11
s87 - s15 + 9.401052z87z15z2 <= 8.11
s87 - s44 + 9.323750z87z44z2 <= 8.11
s87 - s176 + 9.310997z87z176z2 <= 8.11
s182 - s15 + 9.396833z182z15z3 <= 8.13
s32 - s15 + 9.414064z32z15z3 <= 8.14

x191x56x1 - 2z191z56z1 <= 0
x191x162x1 - 1z191z162z1 <= 0
x191x36x1 - 2z191z36z1 <= 0
x191x41x1 - 1z191z41z1 <= 0
x191x43x1 - 1z191z43z1 <= 0
x191x185x1 - 1z191z185z1 <= 0
x191x32x1 - 1z191z32z1 <= 0
x90x157x3 - 2z90z157z3 <= 0
x90x151x3 - 2z90z151z3 <= 0
x90x185x3 - 1z90z185z3 <= 0
x90x28x3 - 2z90z28z3 <= 0
x90x182x3 - 2z90z182z3 <= 0
x90x32x3 - 1z90z32z3 <= 0
x90x15x3 - 1z90z15z3 <= 0
x88x56x1 - 2z88z56z1 <= 0
x88x162x1 - 1z88z162z1 <= 0
x88x36x1 - 2z88z36z1 <= 0
x88x41x1 - 1z88z41z1 <= 0
x88x43x1 - 1z88z43z1 <= 0
x88x185x1 - 1z88z185z1 <= 0
x88x32x1 - 1z88z32z1 <= 0
x142x162x2 - 1z142z162z2 <= 0
x142x118x2 - 2z142z118z2 <= 0
x142x41x2 - 1z142z41z2 <= 0
x142x43x2 - 1z142z43z2 <= 0
x142x87x2 - 2z142z87z2 <= 0
x142x8x2 - 2z142z8z2 <= 0
x142x15x2 - 1z142z15z2 <= 0
x142x44x2 - 2z142z44z2 <= 0
x142x176x2 - 2z142z176z2 <= 0
x23x162x2 - 1z23z162z2 <= 0
x23x118x2 - 2z23z118z2 <= 0
x23x41x2 - 1z23z41z2 <= 0
x23x43x2 - 1z23z43z2 <= 0
x23x87x2 - 2z23z87z2 <= 0
x23x8x2 - 2z23z8z2 <= 0
x23x15x2 - 1z23z15z2 <= 0
x23x44x2 - 2z23z44z2 <= 0
x23x176x2 - 2z23z176z2 <= 0
x138x162x2 - 1z138z162z2 <= 0
x138x118x2 - 2z138z118z2 <= 0
x138x41x2 - 1z138z41z2 <= 0
x138x43x2 - 1z138z43z2 <= 0
x138x157x3 - 2z138z157z3 <= 0
x138x151x3 - 2z138z151z3 <= 0
x138x185x3 - 1z138z185z3 <= 0
x138x28x3 - 2z138z28z3 <= 0
x138x87x2 - 2z138z87z2 <= 0
x138x182x3 - 2z138z182z3 <= 0
x138x32x3 - 1z138z32z3 <= 0
x138x8x2 - 2z138z8z2 <= 0
x138x15x2 - 1z138z15z2 <= 0
x138x15x3 - 1z138z15z3 <= 0
x138x44x2 - 2z138z44z2 <= 0
x138x176x2 - 2z138z176z2 <= 0
x26x87x2 - 2z26z87z2 <= 0
x26x32x1 - 1z26z32z1 <= 0
x26x8x2 - 2z26z8z2 <= 0
x26x15x2 - 1z26z15z2 <= 0
x26x44x2 - 2z26z44z2 <= 0
x26x176x2 - 2z26z176z2 <= 0
x24x87x2 - 2z24z87z2 <= 0
x24x32x1 - 1z24z32z1 <= 0
x24x8x2 - 2z24z8z2 <= 0
x24x15x2 - 1z24z15z2 <= 0
x24x44x2 - 2z24z44z2 <= 0
x24x176x2 - 2z24z176z2 <= 0
x121x157x3 - 2z121z157z3 <= 0
x121x151x3 - 2z121z151z3 <= 0
x121x185x3 - 1z121z185z3 <= 0
x121x28x3 - 2z121z28z3 <= 0
x121x182x3 - 2z121z182z3 <= 0
x121x32x3 - 1z121z32z3 <= 0
x121x15x3 - 1z121z15z3 <= 0
x38x32x1 - 1z38z32z1 <= 0
x196x162x2 - 1z196z162z2 <= 0
x196x118x2 - 2z196z118z2 <= 0
x196x41x2 - 1z196z41z2 <= 0
x196x43x2 - 1z196z43z2 <= 0
x196x157x3 - 2z196z157z3 <= 0
x196x151x3 - 2z196z151z3 <= 0
x196x185x3 - 1z196z185z3 <= 0
x196x28x3 - 2z196z28z3 <= 0
x196x87x2 - 2z196z87z2 <= 0
x196x182x3 - 2z196z182z3 <= 0
x196x32x3 - 1z196z32z3 <= 0
x196x8x2 - 2z196z8z2 <= 0
x196x15x2 - 1z196z15z2 <= 0
x196x15x3 - 1z196z15z3 <= 0
x196x44x2 - 2z196z44z2 <= 0
x196x176x2 - 2z196z176z2 <= 0
x75x157x3 - 2z75z157z3 <= 0
x75x151x3 - 2z75z151z3 <= 0
x75x185x3 - 1z75z185z3 <= 0
x75x28x3 - 2z75z28z3 <= 0
x75x182x3 - 2z75z182z3 <= 0
x75x32x3 - 1z75z32z3 <= 0
x75x15x3 - 1z75z15z3 <= 0
x56x162x1 - 1z56z162z1 <= 0
x56x36x1 - 2z56z36z1 <= 0
x56x41x1 - 1z56z41z1 <= 0
x56x43x1 - 1z56z43z1 <= 0
x56x185x1 - 1z56z185z1 <= 0
x56x32x1 - 1z56z32z1 <= 0
x56x0x1 <= 2
x162x36x1 - 2z162z36z1 <= 0
x162x185x1 - 1z162z185z1 <= 0
x162x87x2 - 2z162z87z2 <= 0
x162x32x1 - 1z162z32z1 <= 0
x162x8x2 - 2z162z8z2 <= 0
x162x15x2 - 1z162z15z2 <= 0
x162x44x2 - 2z162z44z2 <= 0
x162x176x2 - 2z162z176z2 <= 0
x162x0x1 <= 1
x162x0x2 <= 1
x118x43x2 - 1z118z43z2 <= 0
x118x87x2 - 2z118z87z2 <= 0
x118x8x2 - 2z118z8z2 <= 0
x118x15x2 - 1z118z15z2 <= 0
x118x44x2 - 2z118z44z2 <= 0
x118x176x2 - 2z118z176z2 <= 0
x118x0x2 <= 2
x36x185x1 - 1z36z185z1 <= 0
x36x32x1 - 1z36z32z1 <= 0
x36x0x1 <= 2
x41x185x1 - 1z41z185z1 <= 0
x41x87x2 - 2z41z87z2 <= 0
x41x32x1 - 1z41z32z1 <= 0
x41x8x2 - 2z41z8z2 <= 0
x41x15x2 - 1z41z15z2 <= 0
x41x44x2 - 2z41z44z2 <= 0
x41x176x2 - 2z41z176z2 <= 0
x41x0x1 <= 1
x41x0x2 <= 1
x43x185x1 - 1z43z185z1 <= 0
x43x87x2 - 2z43z87z2 <= 0
x43x32x1 - 1z43z32z1 <= 0
x43x8x2 - 2z43z8z2 <= 0
x43x15x2 - 1z43z15z2 <= 0
x43x44x2 - 2z43z44z2 <= 0
x43x176x2 - 2z43z176z2 <= 0
x43x0x1 <= 1
x43x0x2 <= 1
x157x185x3 - 1z157z185z3 <= 0
x157x28x3 - 2z157z28z3 <= 0
x157x182x3 - 2z157z182z3 <= 0
x157x32x3 - 1z157z32z3 <= 0
x157x15x3 - 1z157z15z3 <= 0
x157x0x3 <= 2
x151x185x3 - 1z151z185z3 <= 0
x151x28x3 - 2z151z28z3 <= 0
x151x182x3 - 2z151z182z3 <= 0
x151x32x3 - 1z151z32z3 <= 0
x151x15x3 - 1z151z15z3 <= 0
x151x0x3 <= 2
x185x28x3 - 2z185z28z3 <= 0
x185x182x3 - 2z185z182z3 <= 0
x185x32x1 - 1z185z32z1 <= 0
x185x32x3 - 1z185z32z3 <= 0
x185x15x3 - 1z185z15z3 <= 0
x185x0x1 <= 1
x185x0x3 <= 1
x28x182x3 - 2z28z182z3 <= 0
x28x32x3 - 1z28z32z3 <= 0
x28x15x3 - 1z28z15z3 <= 0
x28x0x3 <= 2
x87x8x2 - 2z87z8z2 <= 0
x87x15x2 - 1z87z15z2 <= 0
x87x44x2 - 2z87z44z2 <= 0
x87x176x2 - 2z87z176z2 <= 0
x87x0x2 <= 2
x182x15x3 - 1z182z15z3 <= 0
x182x0x3 <= 2
x32x15x3 - 1z32z15z3 <= 0
x32x0x1 <= 1
x32x0x3 <= 1
x8x0x2 <= 2
x15x0x2 <= 1
x15x0x3 <= 1
x44x0x2 <= 2
x176x0x2 <= 2

Bounds
s191 = 4.978106
s90 = 5.187826
s88 = 5.143338
s142 = 5.254479
s23 = 5.458551
s138 = 5.582925
s26 = 5.961970
s24 = 5.911483
s121 = 5.583341
s38 = 5.970000
s196 = 4.870760
s75 = 4.884060
6.010000 <= s56 <= 7.010000
6.100000 <= s162 <= 7.100000
6.130000 <= s118 <= 7.130000
6.150000 <= s36 <= 7.150000
6.150000 <= s41 <= 7.150000
6.160000 <= s43 <= 7.160000
6.170000 <= s157 <= 7.170000
6.190000 <= s151 <= 7.190000
6.260000 <= s185 <= 7.260000
7.050000 <= s28 <= 8.050000
7.110000 <= s87 <= 8.110000
7.130000 <= s182 <= 8.130000
7.140000 <= s32 <= 8.140000
8.020000 <= s8 <= 9.020000
8.030000 <= s15 <= 9.030000
8.030000 <= s44 <= 9.030000
8.030000 <= s176 <= 9.030000

General
x191x56x1 x191x162x1 x191x36x1 x191x41x1 x191x43x1 x191x185x1 x191x32x1 
x90x157x3 x90x151x3 x90x185x3 x90x28x3 x90x182x3 x90x32x3 x90x15x3 
x88x56x1 x88x162x1 x88x36x1 x88x41x1 x88x43x1 x88x185x1 x88x32x1 
x142x162x2 x142x118x2 x142x41x2 x142x43x2 x142x87x2 x142x8x2 x142x15x2 x142x44x2 x142x176x2 
x23x162x2 x23x118x2 x23x41x2 x23x43x2 x23x87x2 x23x8x2 x23x15x2 x23x44x2 x23x176x2 
x138x162x2 x138x118x2 x138x41x2 x138x43x2 x138x157x3 x138x151x3 x138x185x3 x138x28x3 x138x87x2 x138x182x3 x138x32x3 x138x8x2 x138x15x2 x138x15x3 x138x44x2 x138x176x2 
x26x87x2 x26x32x1 x26x8x2 x26x15x2 x26x44x2 x26x176x2 
x24x87x2 x24x32x1 x24x8x2 x24x15x2 x24x44x2 x24x176x2 
x121x157x3 x121x151x3 x121x185x3 x121x28x3 x121x182x3 x121x32x3 x121x15x3 
x38x32x1 
x196x162x2 x196x118x2 x196x41x2 x196x43x2 x196x157x3 x196x151x3 x196x185x3 x196x28x3 x196x87x2 x196x182x3 x196x32x3 x196x8x2 x196x15x2 x196x15x3 x196x44x2 x196x176x2 
x75x157x3 x75x151x3 x75x185x3 x75x28x3 x75x182x3 x75x32x3 x75x15x3 
x56x162x1 x56x36x1 x56x41x1 x56x43x1 x56x185x1 x56x32x1 x56x0x1 
x162x36x1 x162x185x1 x162x87x2 x162x32x1 x162x8x2 x162x15x2 x162x44x2 x162x176x2 x162x0x1 x162x0x2 
x118x43x2 x118x87x2 x118x8x2 x118x15x2 x118x44x2 x118x176x2 x118x0x2 
x36x185x1 x36x32x1 x36x0x1 
x41x185x1 x41x87x2 x41x32x1 x41x8x2 x41x15x2 x41x44x2 x41x176x2 x41x0x1 x41x0x2 
x43x185x1 x43x87x2 x43x32x1 x43x8x2 x43x15x2 x43x44x2 x43x176x2 x43x0x1 x43x0x2 
x157x185x3 x157x28x3 x157x182x3 x157x32x3 x157x15x3 x157x0x3 
x151x185x3 x151x28x3 x151x182x3 x151x32x3 x151x15x3 x151x0x3 
x185x28x3 x185x182x3 x185x32x1 x185x32x3 x185x15x3 x185x0x1 x185x0x3 
x28x182x3 x28x32x3 x28x15x3 x28x0x3 
x87x8x2 x87x15x2 x87x44x2 x87x176x2 x87x0x2 
x182x15x3 x182x0x3 
x32x15x3 x32x0x1 x32x0x3 
x8x0x2 
x15x0x2 x15x0x3 
x44x0x2 
x176x0x2 

Binaries
y56 y162 y118 y36 y41 y43 y157 y151 y185 y28 y87 y182 y32 y8 y15 y44 y176 
z191z56z1 z191z162z1 z191z36z1 z191z41z1 z191z43z1 z191z185z1 z191z32z1 
z90z157z3 z90z151z3 z90z185z3 z90z28z3 z90z182z3 z90z32z3 z90z15z3 
z88z56z1 z88z162z1 z88z36z1 z88z41z1 z88z43z1 z88z185z1 z88z32z1 
z142z162z2 z142z118z2 z142z41z2 z142z43z2 z142z87z2 z142z8z2 z142z15z2 z142z44z2 z142z176z2 
z23z162z2 z23z118z2 z23z41z2 z23z43z2 z23z87z2 z23z8z2 z23z15z2 z23z44z2 z23z176z2 
z138z162z2 z138z118z2 z138z41z2 z138z43z2 z138z157z3 z138z151z3 z138z185z3 z138z28z3 z138z87z2 z138z182z3 z138z32z3 z138z8z2 z138z15z2 z138z15z3 z138z44z2 z138z176z2 
z26z87z2 z26z32z1 z26z8z2 z26z15z2 z26z44z2 z26z176z2 
z24z87z2 z24z32z1 z24z8z2 z24z15z2 z24z44z2 z24z176z2 
z121z157z3 z121z151z3 z121z185z3 z121z28z3 z121z182z3 z121z32z3 z121z15z3 
z38z32z1 
z196z162z2 z196z118z2 z196z41z2 z196z43z2 z196z157z3 z196z151z3 z196z185z3 z196z28z3 z196z87z2 z196z182z3 z196z32z3 z196z8z2 z196z15z2 z196z15z3 z196z44z2 z196z176z2 
z75z157z3 z75z151z3 z75z185z3 z75z28z3 z75z182z3 z75z32z3 z75z15z3 
z56z162z1 z56z36z1 z56z41z1 z56z43z1 z56z185z1 z56z32z1 
z162z36z1 z162z185z1 z162z87z2 z162z32z1 z162z8z2 z162z15z2 z162z44z2 z162z176z2 
z118z43z2 z118z87z2 z118z8z2 z118z15z2 z118z44z2 z118z176z2 
z36z185z1 z36z32z1 
z41z185z1 z41z87z2 z41z32z1 z41z8z2 z41z15z2 z41z44z2 z41z176z2 
z43z185z1 z43z87z2 z43z32z1 z43z8z2 z43z15z2 z43z44z2 z43z176z2 
z157z185z3 z157z28z3 z157z182z3 z157z32z3 z157z15z3 
z151z185z3 z151z28z3 z151z182z3 z151z32z3 z151z15z3 
z185z28z3 z185z182z3 z185z32z1 z185z32z3 z185z15z3 
z28z182z3 z28z32z3 z28z15z3 
z87z8z2 z87z15z2 z87z44z2 z87z176z2 
z182z15z3 
z32z15z3 





End